66 7 98 40 169 136 92 44 199 41 1 4 135 62 18 53 159 164 23 168 5 125 86 102 33 22 193 10 197 188 174 50 31 114 16 82 149 113 185 99 119 151 74 79 90 141 190 146 142 194 52 173 95 192 176 78 198 138 150 46 84 48 51 186 161 38 37 6 15 180 2 89 28 105 166 109 83 152 26 56 42 130 72 145 19 147 75 163 157 106 171 139 14 178 140 71 153 133 154 81 91 88 160 120 29 101 60 30 54 182 103 181 187 94 116 167 55 148 63 100 39 117 11 34 126 111 172 155 21 13 118 85 175 184 73 20 87 144 80 3 134 122 76 58 97 127 36 115 137 143 93 131 165 70 191 158 128 67 0 179 170 96 129 156 32 112 183 162 17 132 110 123 68 195 12 177 107 43 45 47 64 8 49 35 124 196 108 104 77 9 61 65 27 59 189 121 24 25 57 69 

